networks/zoo_79_328/zoo_79_328-lower.txt
Number of groups: 43
Flow 12: {3 25 0} {25 32 0} 
Flow 13: {3 33 0} {33 74 0} 
Flow 15: {4 33 0} {33 25 0} 
Flow 17: {5 8 0} {8 25 0} {25 22 0} {22 63 0} 
Flow 18: {7 8 0} 
Flow 31: {10 8 0} {8 30 0} {30 16 0} {16 57 0} 
Flow 41: {11 22 0} {22 25 0} {25 33 0} 
Flow 52: {12 22 0} {22 16 0} {16 30 0} {30 31 0} {31 72 0} 
Flow 65: {13 29 0} {29 25 0} {25 66 0} 
Flow 88: {14 22 0} {22 32 0} {32 73 0} 
Flow 94: {15 16 0} {16 17 0} {17 58 0} 
Flow 106: {16 15 0} {15 56 0} 
Flow 122: {17 16 0} {16 18 0} {18 59 0} 
Flow 135: {18 16 0} {16 22 0} {22 20 0} {20 61 0} 
Flow 146: {19 22 0} 
Flow 156: {20 22 0} 
Flow 174: {21 25 0} {25 26 0} 
Flow 175: {21 29 0} {29 30 0} {30 71 0} 
Flow 179: {25 8 0} {8 1 0} {1 42 0} 
Flow 181: {22 6 0} {6 47 0} 
Flow 183: {8 9 0} {9 50 0} 
Flow 184: {8 10 0} {10 51 0} 
Flow 192: {22 19 0} {19 60 0} 
Flow 198: {22 29 0} {29 28 0} {28 69 0} 
Flow 203: {22 38 0} {38 37 0} {37 78 0} 
Flow 204: {38 79 0} 
Flow 206: {24 22 0} 
Flow 220: {26 8 0} {8 49 0} 
Flow 221: {26 25 0} {25 29 0} {29 13 0} {13 54 0} 
Flow 231: {29 22 0} {22 12 0} {12 53 0} 
Flow 233: {13 14 0} {14 55 0} 
Flow 247: {25 3 0} {3 44 0} 
Flow 264: {30 8 0} {8 26 0} {26 67 0} 
Flow 265: {30 27 0} {27 68 0} 
Flow 280: {31 30 0} {30 29 0} {29 21 0} {21 62 0} 
Flow 288: {32 22 0} {22 14 0} {14 13 0} 
Flow 293: {32 25 0} {25 21 0} 
Flow 299: {33 3 0} 
Flow 317: {34 38 0} 
Flow 319: {35 22 0} 
Flow 320: {37 38 0} 
Flow 325: {39 38 0} {38 22 0} 
Flow 327: {41 22 0} 
Time taken running everything: 1 seconds
