networks/zoo_79_328/zoo_79_328-lower.sol
<?xml version = "1.0" encoding="UTF-8" standalone="yes"?>
<CPLEXSolution version="1.2">
 <header
   problemName="networks/zoo_79_328/zoo_79_328-lower.lp"
   solutionName="incumbent"
   solutionIndex="-1"
   objectiveValue="27"
   solutionTypeValue="3"
   solutionTypeString="primal"
   solutionStatusValue="101"
   solutionStatusString="integer optimal solution"
   solutionMethodString="mip"
   primalFeasible="1"
   dualFeasible="1"
   MIPNodes="0"
   MIPIterations="0"
   writeLevel="3"/>
 <quality
   epInt="1.0000000000000001e-05"
   epRHS="9.9999999999999995e-07"
   maxIntInfeas="0"
   maxPrimalInfeas="0"
   maxX="1"
   maxSlack="1"/>
 <variables>
  <variable name="Y(1,8)" index="6" value="1"/>
  <variable name="Y(2,13)" index="75" value="1"/>
  <variable name="Y(3,14)" index="140" value="1"/>
  <variable name="Y(4,16)" index="206" value="1"/>
  <variable name="Y(5,17)" index="271" value="1"/>
  <variable name="Y(6,18)" index="336" value="1"/>
  <variable name="Y(7,21)" index="403" value="1"/>
  <variable name="Y(8,22)" index="468" value="1"/>
  <variable name="Y(9,25)" index="534" value="1"/>
  <variable name="Y(10,26)" index="599" value="1"/>
  <variable name="Y(11,31)" index="668" value="1"/>
  <variable name="Y(12,32)" index="733" value="1"/>
  <variable name="Y(13,33)" index="798" value="1"/>
  <variable name="Y(54,3)" index="3393" value="1"/>
  <variable name="Y(56,12)" index="3530" value="1"/>
  <variable name="Y(58,15)" index="3661" value="1"/>
  <variable name="Y(62,20)" index="3922" value="1"/>
  <variable name="Y(67,30)" index="4251" value="1"/>
  <variable name="Y(72,6)" index="4548" value="1"/>
  <variable name="Y(80,19)" index="5073" value="1"/>
  <variable name="Y(179,1)" index="11392" value="1"/>
  <variable name="Y(183,9)" index="11655" value="1"/>
  <variable name="Y(184,10)" index="11720" value="1"/>
  <variable name="Y(197,27)" index="12568" value="1"/>
  <variable name="Y(198,28)" index="12633" value="1"/>
  <variable name="Y(203,37)" index="12961" value="1"/>
  <variable name="Y(204,38)" index="13026" value="1"/>
  <variable name="X(1,42,179)" index="21170" value="1"/>
  <variable name="X(3,25,1)" index="21320" value="1"/>
  <variable name="X(3,33,13)" index="21660" value="1"/>
  <variable name="X(3,44,54)" index="22029" value="1"/>
  <variable name="X(4,33,14)" index="22317" value="1"/>
  <variable name="X(5,8,16)" index="22647" value="1"/>
  <variable name="X(6,47,72)" index="23031" value="1"/>
  <variable name="X(7,8,18)" index="23305" value="1"/>
  <variable name="X(8,1,179)" index="23794" value="1"/>
  <variable name="X(8,9,183)" index="24126" value="1"/>
  <variable name="X(8,10,184)" index="24455" value="1"/>
  <variable name="X(8,25,17)" index="24616" value="1"/>
  <variable name="X(8,26,27)" index="24954" value="1"/>
  <variable name="X(8,30,11)" index="25266" value="1"/>
  <variable name="X(8,49,1)" index="25584" value="1"/>
  <variable name="X(9,50,183)" index="26094" value="1"/>
  <variable name="X(10,8,31)" index="26270" value="1"/>
  <variable name="X(10,51,184)" index="26751" value="1"/>
  <variable name="X(11,22,33)" index="26928" value="1"/>
  <variable name="X(12,22,42)" index="27265" value="1"/>
  <variable name="X(12,53,56)" index="27607" value="1"/>
  <variable name="X(13,14,57)" index="27936" value="1"/>
  <variable name="X(13,29,54)" index="28261" value="1"/>
  <variable name="X(13,54,2)" index="28537" value="1"/>
  <variable name="X(14,13,34)" index="28897" value="1"/>
  <variable name="X(14,22,71)" index="29262" value="1"/>
  <variable name="X(14,55,3)" index="29522" value="1"/>
  <variable name="X(15,16,90)" index="29937" value="1"/>
  <variable name="X(15,56,58)" index="30233" value="1"/>
  <variable name="X(16,15,58)" index="30561" value="1"/>
  <variable name="X(16,17,5)" index="30836" value="1"/>
  <variable name="X(16,18,6)" index="31165" value="1"/>
  <variable name="X(16,22,91)" index="31578" value="1"/>
  <variable name="X(16,30,52)" index="31867" value="1"/>
  <variable name="X(16,57,4)" index="32147" value="1"/>
  <variable name="X(17,16,119)" index="32590" value="1"/>
  <variable name="X(17,58,5)" index="32804" value="1"/>
  <variable name="X(18,16,127)" index="33254" value="1"/>
  <variable name="X(18,59,6)" index="33461" value="1"/>
  <variable name="X(19,22,144)" index="33927" value="1"/>
  <variable name="X(19,60,80)" index="34191" value="1"/>
  <variable name="X(20,22,156)" index="34595" value="1"/>
  <variable name="X(20,61,62)" index="34829" value="1"/>
  <variable name="X(21,25,162)" index="35257" value="1"/>
  <variable name="X(21,29,165)" index="35588" value="1"/>
  <variable name="X(21,62,7)" index="35758" value="1"/>
  <variable name="X(22,6,72)" index="36151" value="1"/>
  <variable name="X(22,12,56)" index="36463" value="1"/>
  <variable name="X(22,14,3)" index="36738" value="1"/>
  <variable name="X(22,16,4)" index="37067" value="1"/>
  <variable name="X(22,19,80)" index="37471" value="1"/>
  <variable name="X(22,20,62)" index="37781" value="1"/>
  <variable name="X(22,25,33)" index="38080" value="1"/>
  <variable name="X(22,29,198)" index="38573" value="1"/>
  <variable name="X(22,32,69)" index="38772" value="1"/>
  <variable name="X(22,38,203)" index="39234" value="1"/>
  <variable name="X(22,63,8)" index="39367" value="1"/>
  <variable name="X(24,22,205)" index="39892" value="1"/>
  <variable name="X(25,3,54)" index="40069" value="1"/>
  <variable name="X(25,8,1)" index="40344" value="1"/>
  <variable name="X(25,21,7)" index="40678" value="1"/>
  <variable name="X(25,22,3)" index="41002" value="1"/>
  <variable name="X(25,26,10)" index="41337" value="1"/>
  <variable name="X(25,29,2)" index="41657" value="1"/>
  <variable name="X(25,32,12)" index="41995" value="1"/>
  <variable name="X(25,33,30)" index="42341" value="1"/>
  <variable name="X(25,66,9)" index="42648" value="1"/>
  <variable name="X(26,8,220)" index="43187" value="1"/>
  <variable name="X(26,25,221)" index="43516" value="1"/>
  <variable name="X(26,67,10)" index="43633" value="1"/>
  <variable name="X(27,68,197)" index="44148" value="1"/>
  <variable name="X(28,69,198)" index="44477" value="1"/>
  <variable name="X(29,13,2)" index="44609" value="1"/>
  <variable name="X(29,21,63)" index="44998" value="1"/>
  <variable name="X(29,22,56)" index="45319" value="1"/>
  <variable name="X(29,25,54)" index="45645" value="1"/>
  <variable name="X(29,28,198)" index="46117" value="1"/>
  <variable name="X(29,30,67)" index="46314" value="1"/>
  <variable name="X(30,8,90)" index="46665" value="1"/>
  <variable name="X(30,16,16)" index="46919" value="1"/>
  <variable name="X(30,27,197)" index="47428" value="1"/>
  <variable name="X(30,29,253)" index="47812" value="1"/>
  <variable name="X(30,31,11)" index="47898" value="1"/>
  <variable name="X(30,71,67)" index="48282" value="1"/>
  <variable name="X(31,30,269)" index="48812" value="1"/>
  <variable name="X(31,72,11)" index="48882" value="1"/>
  <variable name="X(32,22,288)" index="49487" value="1"/>
  <variable name="X(32,25,287)" index="49814" value="1"/>
  <variable name="X(32,73,12)" index="49867" value="1"/>
  <variable name="X(33,3,299)" index="50482" value="1"/>
  <variable name="X(33,25,14)" index="50525" value="1"/>
  <variable name="X(33,74,13)" index="50852" value="1"/>
  <variable name="X(34,38,317)" index="51484" value="1"/>
  <variable name="X(35,22,319)" index="51814" value="1"/>
  <variable name="X(37,38,320)" index="52143" value="1"/>
  <variable name="X(37,78,203)" index="52354" value="1"/>
  <variable name="X(38,22,317)" index="52796" value="1"/>
  <variable name="X(38,37,203)" index="53010" value="1"/>
  <variable name="X(38,79,204)" index="53339" value="1"/>
  <variable name="X(39,38,324)" index="53787" value="1"/>
  <variable name="X(41,22,326)" index="54117" value="1"/>
 </variables>
</CPLEXSolution>
